PROBLEM NAME: cluster20_n19_bounded-strongly-corr
KNAPSACK DATA TYPE: bounded strongly corr
DIMENSION: 20
NUMBER OF ITEMS: 19
CAPACITY OF KNAPSACK: 180
MIN SPEED: 0.1
MAX SPEED: 1.0
RENTING RATIO: 0.9
EDGE_WEIGHT_TYPE: EUC_2D
NODE_COORD_SECTION
1 20 80
2 18 83
3 22 77
4 16 76
5 25 84
6 80 80
7 78 83
8 82 77
9 77 76
10 84 84
11 80 20
12 78 23
13 82 17
14 77 16
15 84 24
16 20 20
17 18 23
18 22 17
19 17 16
20 24 24
ITEMS SECTION
1 235 35 2
2 242 42 3
3 230 30 4
4 248 48 5
5 55 5 6
6 58 8 7
7 54 4 8
8 57 7 9
9 53 3 10
10 238 38 11
11 245 45 12
12 233 33 13
13 250 50 14
14 240 40 15
15 56 6 16
16 59 9 17
17 54 4 18
18 57 7 19
19 55 5 20
